c This is a cost file for a grid world
p sp 9 24
a 0 1 3
a 0 3 3
a 1 2 3
a 1 0 3
a 1 4 3
a 2 1 3
a 2 5 3
a 3 4 3
a 3 6 1
a 3 0 3
a 4 5 3
a 4 3 3
a 4 7 3
a 4 1 3
a 5 4 3
a 5 8 3
a 5 2 3
a 6 7 3
a 6 3 3
a 7 8 3
a 7 6 1
a 7 4 3
a 8 7 3
a 8 5 3
